nb_case = 9;
nb_op = 4;

A = [_,6,_,_,2,_,_,_,_,6];
B = [_,0,_,6,_,_,_,_,_,_];
C = [_,_,_,_,_,_,6,_,_,_];
D = [_,_,_,_,_,_,6,_,_,8];

opA = ["*","+","*","-"];
opB = ["+","+","+","+"];
opC = ["+","+","-","+"];
opD = ["*","*","+","*"];

opAB = "-";
opBC = "+";
opCD = "+";
opDA = "+";

AB = 2;
BC = 0;
DA = 1;